p cnf 176 609
c t mc
1 -2 -3 0
-1 2 -3 0
1 2 3 0
-1 -2 3 0
-5 -3 0
-5 -4 0
3 4 5 0
6 1 0
6 -5 0
-1 5 -6 0
6 7 -8 0
-6 -7 -8 0
6 -7 8 0
-6 7 8 0
-10 11 -12 0
10 -11 -12 0
-10 -11 12 0
10 11 12 0
13 -9 0
13 12 0
9 -12 -13 0
-14 -15 -16 0
14 15 -16 0
-14 15 16 0
14 -15 16 0
13 -16 -17 0
-13 16 -17 0
13 16 17 0
-13 -16 17 0
18 -4 0
18 4 0
19 17 0
19 18 0
-17 -18 -19 0
20 -8 0
20 -19 0
8 19 -20 0
-22 -21 0
-22 12 0
21 -12 22 0
-25 -23 0
-25 24 0
23 -24 25 0
-14 -25 -26 0
14 25 -26 0
-14 25 26 0
14 -25 26 0
27 22 0
27 26 0
-22 -26 -27 0
-29 28 0
-29 11 0
-28 -11 29 0
32 31 0
32 24 0
-31 -24 -32 0
33 30 0
33 -32 0
-30 32 -33 0
34 29 0
34 33 0
-29 -33 -34 0
22 -34 -35 0
-22 34 -35 0
22 34 35 0
-22 -34 35 0
27 35 -36 0
-27 -35 -36 0
27 -35 36 0
-27 35 36 0
-37 -28 0
-37 -4 0
28 4 37 0
-38 -37 0
-38 31 0
37 -31 38 0
39 29 0
39 -38 0
-29 38 -39 0
40 -36 0
40 39 0
36 -39 -40 0
-41 -20 0
-41 -40 0
20 40 41 0
42 6 0
42 -25 0
-6 25 -42 0
41 42 -43 0
-41 -42 -43 0
41 -42 43 0
-41 42 43 0
-44 -28 0
-44 -27 0
28 27 44 0
-46 45 0
-46 -17 0
-45 17 46 0
-47 46 0
-47 -1 0
-46 1 47 0
48 1 -49 0
-48 -1 -49 0
48 -1 49 0
-48 1 49 0
-50 -23 0
-50 -12 0
23 12 50 0
-51 -50 0
-51 24 0
50 -24 51 0
-7 51 -52 0
7 -51 -52 0
-7 -51 52 0
7 51 52 0
-53 49 0
-53 52 0
-49 -52 53 0
53 -54 -55 0
-53 54 -55 0
53 54 55 0
-53 -54 55 0
-56 -47 0
-56 55 0
47 -55 56 0
-57 -44 0
-57 56 0
44 -56 57 0
2 1 -58 0
-2 -1 -58 0
2 -1 58 0
-2 1 58 0
59 58 0
59 32 0
-58 -32 -59 0
-61 -1 0
-61 -60 0
1 60 61 0
-45 -61 -62 0
45 61 -62 0
-45 61 62 0
45 -61 62 0
59 62 -63 0
-59 -62 -63 0
59 -62 63 0
-59 62 63 0
50 63 -64 0
-50 -63 -64 0
50 -63 64 0
-50 63 64 0
-65 57 0
-65 64 0
-57 -64 65 0
-66 -43 0
-66 -65 0
43 65 66 0
68 -14 0
68 67 0
14 -67 -68 0
68 -13 -69 0
-68 13 -69 0
68 13 69 0
-68 -13 69 0
70 24 0
70 13 0
-24 -13 -70 0
7 1 -71 0
-7 -1 -71 0
7 -1 71 0
-7 1 71 0
72 -70 0
72 -71 0
70 71 -72 0
-17 54 -73 0
17 -54 -73 0
-17 -54 73 0
17 54 73 0
74 -73 0
74 23 0
73 -23 -74 0
-75 -72 0
-75 -74 0
72 74 75 0
76 69 0
76 -75 0
-69 75 -76 0
-66 -76 -77 0
66 76 -77 0
-66 76 77 0
66 -76 77 0
-78 67 0
-78 -62 0
-67 62 78 0
79 -23 0
79 78 0
23 -78 -79 0
80 -5 0
80 79 0
5 -79 -80 0
81 80 0
81 -36 0
-80 36 -81 0
-26 -52 -82 0
26 52 -82 0
-26 52 82 0
26 -52 82 0
82 -18 -83 0
-82 18 -83 0
82 18 83 0
-82 -18 83 0
-84 -81 0
-84 -83 0
81 83 84 0
85 32 0
85 60 0
-32 -60 -85 0
86 -25 0
86 85 0
25 -85 -86 0
87 16 0
87 30 0
-16 -30 -87 0
-88 -33 0
-88 -87 0
33 87 88 0
89 86 0
89 88 0
-86 -88 -89 0
-18 67 -90 0
18 -67 -90 0
-18 -67 90 0
18 67 90 0
-90 87 -91 0
90 -87 -91 0
-90 -87 91 0
90 87 91 0
-92 -1 0
-92 91 0
1 -91 92 0
-38 -9 -93 0
38 9 -93 0
-38 9 93 0
38 -9 93 0
94 -12 0
94 93 0
12 -93 -94 0
-92 -94 -95 0
92 94 -95 0
-92 94 95 0
92 -94 95 0
89 -95 -96 0
-89 95 -96 0
89 95 96 0
-89 -95 96 0
-97 -7 0
-97 -32 0
7 32 97 0
-98 -61 0
-98 -97 0
61 97 98 0
99 -5 0
99 -98 0
5 98 -99 0
100 -60 0
100 13 0
60 -13 -100 0
101 39 0
101 100 0
-39 -100 -101 0
-99 -101 -102 0
99 101 -102 0
-99 101 102 0
99 -101 102 0
103 67 0
103 9 0
-67 -9 -103 0
104 -19 0
104 7 0
19 -7 -104 0
-105 -39 0
-105 46 0
39 -46 105 0
-106 104 0
-106 -105 0
-104 105 106 0
-103 -106 -107 0
103 106 -107 0
-103 106 107 0
103 -106 107 0
80 -47 -108 0
-80 47 -108 0
80 47 108 0
-80 -47 108 0
107 -108 -109 0
-107 108 -109 0
107 108 109 0
-107 -108 109 0
110 -19 0
110 -60 0
19 60 -110 0
111 -50 0
111 -110 0
50 110 -111 0
112 3 0
112 -80 0
-3 80 -112 0
-111 112 -113 0
111 -112 -113 0
-111 -112 113 0
111 112 113 0
-114 -61 0
-114 -4 0
61 4 114 0
115 -113 0
115 114 0
113 -114 -115 0
-61 -14 -116 0
61 14 -116 0
-61 14 116 0
61 -14 116 0
-117 58 0
-117 -22 0
-58 22 117 0
118 -116 0
118 117 0
116 -117 -118 0
115 -118 -119 0
-115 118 -119 0
115 118 119 0
-115 -118 119 0
-100 29 -120 0
100 -29 -120 0
-100 -29 120 0
100 29 120 0
121 -3 0
121 120 0
3 -120 -121 0
-31 -33 -122 0
31 33 -122 0
-31 33 122 0
31 -33 122 0
-121 -122 -123 0
121 122 -123 0
-121 122 123 0
121 -122 123 0
124 -119 0
124 123 0
119 -123 -124 0
125 109 0
125 -124 0
-109 124 -125 0
126 38 0
126 -39 0
-38 39 -126 0
28 126 -127 0
-28 -126 -127 0
28 -126 127 0
-28 126 127 0
80 -5 -128 0
-80 5 -128 0
80 5 128 0
-80 -5 128 0
-129 128 0
-129 51 0
-128 -51 129 0
130 37 0
130 129 0
-37 -129 -130 0
131 -105 0
131 33 0
105 -33 -131 0
-130 -131 -132 0
130 131 -132 0
-130 131 132 0
130 -131 132 0
-133 -51 0
-133 -62 0
51 62 133 0
134 3 0
134 -133 0
-3 133 -134 0
135 -22 0
135 134 0
22 -134 -135 0
14 48 -136 0
-14 -48 -136 0
14 -48 136 0
-14 48 136 0
-137 54 0
-137 -47 0
-54 47 137 0
-138 -136 0
-138 137 0
136 -137 138 0
128 62 -139 0
-128 -62 -139 0
128 -62 139 0
-128 62 139 0
-138 -139 -140 0
138 139 -140 0
-138 139 140 0
138 -139 140 0
-141 135 0
-141 -140 0
-135 140 141 0
132 141 -142 0
-132 -141 -142 0
132 -141 142 0
-132 141 142 0
127 -142 -143 0
-127 142 -143 0
127 142 143 0
-127 -142 143 0
-144 -125 0
-144 -143 0
125 143 144 0
126 -38 -145 0
-126 38 -145 0
126 38 145 0
-126 -38 145 0
146 144 0
146 145 0
-144 -145 -146 0
147 102 0
147 -146 0
-102 146 -147 0
96 -147 -148 0
-96 147 -148 0
96 147 148 0
-96 -147 148 0
149 -84 0
149 148 0
84 -148 -149 0
31 -15 -150 0
-31 15 -150 0
31 15 150 0
-31 -15 150 0
151 -150 0
151 -128 0
150 128 -151 0
-152 149 0
-152 151 0
-149 -151 152 0
77 152 -153 0
-77 -152 -153 0
77 -152 153 0
-77 152 153 0
154 -8 0
154 -26 0
8 26 -154 0
-155 55 0
-155 35 0
-55 -35 155 0
-156 154 0
-156 -155 0
-154 155 156 0
157 -4 0
157 14 0
4 -14 -157 0
-158 -157 0
-158 18 0
157 -18 158 0
91 158 -159 0
-91 -158 -159 0
91 -158 159 0
-91 158 159 0
-160 156 0
-160 -159 0
-156 159 160 0
-87 -55 -161 0
87 55 -161 0
-87 55 161 0
87 -55 161 0
-162 -160 0
-162 161 0
160 -161 162 0
157 21 -163 0
-157 -21 -163 0
157 -21 163 0
-157 21 163 0
-164 163 0
-164 -78 0
-163 78 164 0
164 165 -166 0
-164 -165 -166 0
164 -165 166 0
-164 165 166 0
167 -100 0
167 -58 0
100 58 -167 0
168 80 0
168 -62 0
-80 62 -168 0
-169 -167 0
-169 -168 0
167 168 169 0
170 -166 0
170 -169 0
166 169 -170 0
171 -162 0
171 -170 0
162 170 -171 0
-172 -52 0
-172 -1 0
52 1 172 0
-173 -60 0
-173 -10 0
60 10 173 0
-172 -173 -174 0
172 173 -174 0
-172 173 174 0
172 -173 174 0
171 174 -175 0
-171 -174 -175 0
171 -174 175 0
-171 174 175 0
-153 -175 -176 0
153 175 -176 0
-153 175 176 0
153 -175 176 0
161 21 -74 45 38 0
156 -171 -161 46 -110 0
-67 -87 0
26 -139 -43 -63 93 152 0
-66 49 40 162 166 0
-141 -66 24 -50 32 -103 0
162 -152 98 0
-110 150 -36 0
-93 11 0
-35 -140 50 -75 -109 -121 142 -146 53 166 0
-123 6 -86 -138 90 0
-165 -172 24 169 0
9 -137 75 -164 120 65 88 152 0
17 43 -54 -101 -22 9 38 154 123 0
-15 39 139 115 98 111 -174 -33 -138 0
-133 129 -74 -137 -85 102 -159 109 170 -134 0
70 57 120 0
-69 -18 0
49 -130 -67 0
-118 127 156 0
98 50 -161 -29 0
81 15 -148 0
-121 -2 -137 56 166 21 0
-36 165 126 -19 0
-97 -92 -78 135 167 -12 0
38 -52 -9 -131 -148 81 -50 0
48 -80 36 -134 53 0
170 -12 0
31 -120 112 96 0
-95 -62 0
8 -43 109 -115 -107 0
-154 -53 0
-153 -176 -55 -77 -62 58 108 83 0
102 87 16 -125 -109 0
-130 -4 3 0
164 -14 79 106 161 0
-59 14 0
-136 75 -162 138 -124 115 146 -63 20 37 0
-62 -134 20 151 17 -48 141 124 0
-28 -109 -33 0
-122 54 -8 -70 103 -153 60 93 0
-49 -143 -129 -13 53 -61 -48 -97 25 75 0
2 -91 -128 -57 115 -72 36 -77 -13 83 0
109 -160 0
-33 65 76 -170 -118 151 0
136 112 -111 100 72 0
-24 41 64 -80 -116 25 137 90 -34 63 0
128 -140 89 -143 -49 0
-70 100 -119 148 42 -126 -50 0
-108 70 -105 -69 144 85 -73 -81 -159 0
-62 171 -28 73 -124 -156 -81 0
163 -138 0
43 144 -58 28 -18 0
51 -31 -96 121 0
4 15 0
57 163 129 115 168 -159 0
24 -21 92 0
-96 -127 -154 -172 0
160 138 -157 129 -158 162 0
-78 26 -32 118 0
162 -1 -41 127 -173 76 -147 8 61 0
-153 13 -14 0
109 -28 0
-159 -152 143 172 0
27 26 0
-40 -96 113 -60 16 -5 77 125 -97 0
-138 -150 -113 -11 36 -44 -110 105 -6 79 0
155 -160 67 -158 -91 154 0
70 -168 0
56 -44 51 0
127 -58 -130 41 -9 56 -63 -3 -87 0
64 -17 7 9 -3 -161 -135 0
-144 -159 128 0
49 99 0
-19 -65 163 -110 85 123 49 152 73 0
-169 -101 86 -38 4 -56 -23 -154 0
-115 154 0
-170 24 114 148 0
168 147 -129 -128 0
-6 -101 176 125 121 0
-139 70 -43 0
88 -151 16 0
18 -165 87 45 -145 -153 -92 82 0
61 -22 160 150 -48 -162 -18 172 130 0
-14 82 -117 -42 -85 -91 146 0
116 148 38 146 -70 55 0
-83 95 0
-33 137 106 -56 -126 41 136 0
176 0
